
Gurobi 12.0.1 (win64) logging started Wed Mar  5 22:32:49 2025

Set parameter LogFile to value "C:\Users\abombelli\OneDrive - Delft University of Technology\Desktop\TU_Delft\Papers\Luuk_Barbian_MSc\logs\full_H_65_subset15_restricted_seed42_SEQ1.log"
Gurobi Optimizer version 12.0.1 build v12.0.1rc0 (win64 - Windows 11.0 (22631.2))

CPU model: 13th Gen Intel(R) Core(TM) i7-1355U, instruction set [SSE2|AVX|AVX2]
Thread count: 10 physical cores, 12 logical processors, using up to 12 threads

Non-default parameters:
TimeLimit  7200
MIPGap  0.001

Optimize a model with 499348 rows, 127415 columns and 395409 nonzeros
Model fingerprint: 0x2435bcc1
Variable types: 0 continuous, 127415 integer (127245 binary)
Coefficient statistics:
  Matrix range     [4e-01, 5e+02]
  Objective range  [1e-02, 2e+05]
  Bounds range     [1e+00, 3e+00]
  RHS range        [1e+00, 3e+00]
Presolve removed 450763 rows and 64349 columns
Presolve time: 0.13s
Presolved: 48585 rows, 63066 columns, 263620 nonzeros
Variable types: 0 continuous, 63066 integer (63017 binary)
Found heuristic solution: objective 542597.56000
Found heuristic solution: objective 553317.56000
Performing another presolve...
Presolve removed 22932 rows and 22449 columns
Presolve time: 1.60s
Found heuristic solution: objective 554757.56000
Deterministic concurrent LP optimizer: primal and dual simplex
Showing primal log only...

Concurrent spin time: 0.00s

Solved with dual simplex

Root relaxation: objective 6.213861e+06, 12126 iterations, 1.04 seconds (0.66 work units)

    Nodes    |    Current Node    |     Objective Bounds      |     Work
 Expl Unexpl |  Obj  Depth IntInf | Incumbent    BestBd   Gap | It/Node Time

     0     0 6213860.79    0   99 554757.560 6213860.79  1020%     -    3s
H    0     0                    2364557.5600 6213860.79   163%     -    3s
H    0     0                    6175627.1500 6213860.79  0.62%     -    3s
H    0     0                    6192747.1500 6213860.79  0.34%     -    4s
H    0     0                    6197627.1500 6213860.79  0.26%     -    4s
H    0     0                    6199627.1500 6213860.79  0.23%     -    4s
H    0     0                    6206107.1500 6213860.79  0.12%     -    4s
H    0     0                    6206147.1500 6213860.79  0.12%     -    4s
H    0     0                    6206187.1500 6213860.79  0.12%     -    4s
H    0     0                    6206267.1500 6213860.79  0.12%     -    4s
H    0     0                    6206347.1500 6213860.79  0.12%     -    4s
H    0     0                    6206827.1500 6213860.79  0.11%     -    4s
H    0     0                    6208307.1500 6213860.79  0.09%     -    4s

Explored 1 nodes (15953 simplex iterations) in 4.91 seconds (2.48 work units)
Thread count was 12 (of 12 available processors)

Solution count 10: 6.20831e+06 6.20683e+06 6.20635e+06 ... 6.19275e+06

Optimal solution found (tolerance 1.00e-03)
Best objective 6.208307150000e+06, best bound 6.213860793537e+06, gap 0.0895%
